Results/Experiment 1 Results/New Benchmark/RES_20/output_p1_0.25_p2_0.00_n_20_13.txt
solutions: 0 nodes: 0  modelTime: 149  solveTime: 13  totalTime: 165  modelSize: 7358  readTime: 3 matchingSize: 0
