Results/Experiment 2 Results/New Benchmark/output_p1_0.25_p2_0.00_n_20_13.lp
clingo version 5.4.0
Reading from tempSRTISolver.lp ...
Solving...
Answer: 1
matched(1,4) matched(8,5) matched(6,7) matched(5,8) matched(10,11) matched(9,12) matched(12,9) matched(15,14) matched(14,15) matched(17,16) matched(16,17) matched(13,20) matched(2,3) matched(7,6) matched(19,18) matched(18,19) matched(3,2) matched(11,10) matched(4,1) matched(20,13)
Optimization: 119
Answer: 2
matched(1,4) matched(8,5) matched(3,7) matched(5,8) matched(12,11) matched(11,12) matched(10,9) matched(15,14) matched(14,15) matched(17,16) matched(16,17) matched(13,20) matched(7,3) matched(2,6) matched(19,18) matched(18,19) matched(6,2) matched(9,10) matched(4,1) matched(20,13)
Optimization: 117
Answer: 3
matched(1,4) matched(8,5) matched(6,7) matched(5,8) matched(12,11) matched(11,12) matched(10,9) matched(15,14) matched(14,15) matched(17,16) matched(16,17) matched(13,20) matched(2,3) matched(7,6) matched(19,18) matched(18,19) matched(3,2) matched(9,10) matched(4,1) matched(20,13)
Optimization: 116
Answer: 4
matched(6,4) matched(8,5) matched(1,7) matched(5,8) matched(10,11) matched(9,12) matched(12,9) matched(16,14) matched(17,15) matched(14,16) matched(15,17) matched(13,20) matched(2,3) matched(4,6) matched(19,18) matched(18,19) matched(3,2) matched(11,10) matched(7,1) matched(20,13)
Optimization: 113
Answer: 5
matched(6,4) matched(8,5) matched(1,7) matched(5,8) matched(12,11) matched(11,12) matched(10,9) matched(16,14) matched(17,15) matched(14,16) matched(15,17) matched(13,20) matched(2,3) matched(4,6) matched(19,18) matched(18,19) matched(3,2) matched(9,10) matched(7,1) matched(20,13)
Optimization: 110
Answer: 6
matched(2,4) matched(3,5) matched(6,7) matched(1,8) matched(12,11) matched(11,12) matched(10,9) matched(16,14) matched(17,15) matched(14,16) matched(15,17) matched(13,20) matched(5,3) matched(7,6) matched(19,18) matched(18,19) matched(4,2) matched(9,10) matched(8,1) matched(20,13)
Optimization: 106
OPTIMUM FOUND

Models       : 6
  Optimum    : yes
Optimization : 106
Calls        : 1
Time         : 0.030s (Solving: 0.00s 1st Model: 0.00s Unsat: 0.00s)
CPU Time     : 0.026s
